 Code  3231
 Dimension, Fixed Cost
   100        3000
 Facility, Client, Transportation Cost
     1        4           4
     1       21           1
     1       43           4
     1       56           3
     1       63           0
     1       73           0
     1       81           4
     1       84           1
     1       94           4
     1      100           1
     2        5           2
     2        7           4
     2       32           4
     2       34           0
     2       46           2
     2       74           1
     2       78           2
     2       79           3
     2       87           1
     2       99           1
     3       12           1
     3       13           2
     3       19           3
     3       29           0
     3       49           1
     3       54           3
     3       62           3
     3       68           1
     3       71           1
     3       98           2
     4        3           4
     4       16           4
     4       39           4
     4       45           4
     4       66           4
     4       68           2
     4       69           3
     4       78           2
     4       81           3
     4       88           0
     5        9           2
     5       21           2
     5       39           3
     5       68           0
     5       71           0
     5       79           2
     5       88           2
     5       92           4
     5       93           1
     5      100           0
     6       15           2
     6       19           0
     6       28           4
     6       35           2
     6       39           4
     6       43           0
     6       45           2
     6       74           3
     6       77           1
     6       91           3
     7        3           1
     7       15           0
     7       33           0
     7       70           4
     7       72           3
     7       73           2
     7       79           1
     7       81           4
     7       82           3
     7       83           3
     8       11           1
     8       25           3
     8       31           1
     8       52           1
     8       55           2
     8       65           4
     8       75           1
     8       76           4
     8       83           2
     8       85           2
     9       12           2
     9       14           1
     9       15           0
     9       19           3
     9       36           2
     9       50           1
     9       57           0
     9       64           4
     9       85           3
     9       91           0
    10        4           2
    10       13           1
    10       18           0
    10       26           1
    10       27           0
    10       44           1
    10       59           2
    10       66           4
    10       86           2
    10       92           2
    11        7           2
    11       11           3
    11       16           0
    11       21           3
    11       26           4
    11       52           3
    11       55           0
    11       63           3
    11       65           2
    11       88           3
    12        4           2
    12       11           2
    12       21           4
    12       64           3
    12       73           2
    12       77           0
    12       78           1
    12       83           3
    12       88           1
    12       98           2
    13        1           2
    13        8           4
    13       14           0
    13       36           4
    13       41           3
    13       43           2
    13       45           0
    13       47           2
    13       93           2
    13       97           3
    14       11           2
    14       12           1
    14       26           1
    14       27           3
    14       61           4
    14       75           4
    14       79           3
    14       89           3
    14       92           1
    14       94           4
    15        4           2
    15       19           2
    15       31           3
    15       59           1
    15       70           1
    15       72           4
    15       76           2
    15       82           4
    15       97           3
    15       99           3
    16       12           2
    16       37           3
    16       44           4
    16       47           3
    16       49           1
    16       55           3
    16       75           1
    16       84           3
    16       97           1
    16       99           2
    17       17           4
    17       27           4
    17       46           0
    17       50           4
    17       87           1
    17       88           3
    17       90           0
    17       93           2
    17       96           1
    17       98           0
    18        8           3
    18       25           0
    18       40           2
    18       42           3
    18       50           1
    18       53           1
    18       78           4
    18       88           3
    18       98           4
    18       99           1
    19        1           1
    19       20           4
    19       29           4
    19       34           0
    19       37           1
    19       79           1
    19       81           4
    19       85           3
    19       91           2
    19       93           1
    20       17           3
    20       19           3
    20       26           3
    20       45           1
    20       48           1
    20       49           0
    20       52           4
    20       68           0
    20       88           1
    20       91           0
    21        6           4
    21       11           2
    21       39           3
    21       63           3
    21       71           2
    21       76           3
    21       85           4
    21       89           0
    21       94           1
    21       96           2
    22       10           2
    22       26           0
    22       44           2
    22       53           2
    22       69           4
    22       72           3
    22       74           2
    22       90           3
    22       93           4
    22       97           0
    23       29           3
    23       43           2
    23       67           0
    23       75           0
    23       88           4
    23       92           4
    23       93           1
    23       94           4
    23       98           0
    23       99           0
    24       13           3
    24       31           4
    24       33           3
    24       34           1
    24       49           4
    24       53           0
    24       82           2
    24       85           4
    24       91           0
    24       99           3
    25        6           3
    25       16           1
    25       22           2
    25       53           0
    25       66           2
    25       71           1
    25       87           3
    25       92           1
    25       94           3
    25       96           0
    26       30           2
    26       43           4
    26       48           1
    26       50           3
    26       61           0
    26       62           2
    26       68           1
    26       72           0
    26       79           2
    26       91           0
    27       21           0
    27       31           3
    27       40           0
    27       42           4
    27       46           2
    27       60           2
    27       66           3
    27       67           1
    27       74           2
    27       87           4
    28       10           3
    28       42           3
    28       57           0
    28       70           2
    28       75           1
    28       81           2
    28       87           3
    28       92           0
    28       95           0
    28       97           0
    29        6           0
    29        8           4
    29       23           4
    29       25           2
    29       28           0
    29       45           3
    29       58           1
    29       68           1
    29       85           3
    29      100           1
    30        6           2
    30       27           0
    30       36           3
    30       47           4
    30       61           2
    30       67           0
    30       70           4
    30       74           4
    30       83           0
    30       93           1
    31        3           4
    31       31           1
    31       34           2
    31       42           3
    31       44           0
    31       57           0
    31       66           4
    31       80           2
    31       82           1
    31       90           2
    32       23           1
    32       25           4
    32       40           3
    32       48           1
    32       52           2
    32       56           3
    32       66           4
    32       68           2
    32       69           2
    32       86           0
    33        3           0
    33       18           0
    33       27           3
    33       33           4
    33       37           3
    33       52           1
    33       55           3
    33       69           4
    33       81           2
    33       93           2
    34       28           0
    34       31           4
    34       40           4
    34       44           2
    34       51           1
    34       54           0
    34       64           1
    34       70           4
    34       84           1
    34       93           3
    35        2           2
    35        9           2
    35       29           4
    35       33           2
    35       36           2
    35       38           2
    35       70           2
    35       74           4
    35       82           1
    35       85           0
    36       17           1
    36       32           0
    36       44           3
    36       56           2
    36       64           0
    36       73           2
    36       81           3
    36       87           2
    36       93           2
    36       97           0
    37       23           1
    37       27           4
    37       37           2
    37       39           3
    37       54           3
    37       67           2
    37       71           2
    37       75           2
    37       91           0
    37       93           3
    38        4           3
    38       18           1
    38       20           1
    38       25           3
    38       32           3
    38       55           1
    38       69           0
    38       70           1
    38       71           4
    38       73           0
    39        1           2
    39        2           2
    39        9           3
    39       45           3
    39       49           2
    39       56           3
    39       69           2
    39       74           4
    39       80           3
    39      100           0
    40        6           3
    40       26           3
    40       33           0
    40       44           1
    40       48           4
    40       53           4
    40       58           3
    40       66           4
    40       75           2
    40       98           4
    41        9           2
    41       11           4
    41       16           4
    41       43           4
    41       51           3
    41       54           1
    41       59           4
    41       61           3
    41       77           0
    41       88           1
    42        3           0
    42        7           1
    42       16           2
    42       52           2
    42       55           1
    42       59           3
    42       63           3
    42       80           1
    42       88           3
    42       99           2
    43       21           4
    43       23           1
    43       34           0
    43       40           3
    43       44           1
    43       45           4
    43       66           4
    43       69           0
    43       93           2
    43       95           0
    44       28           1
    44       33           0
    44       34           2
    44       54           4
    44       71           3
    44       73           2
    44       74           1
    44       77           3
    44       78           0
    44       97           3
    45        6           0
    45       12           0
    45       21           0
    45       24           4
    45       55           1
    45       65           1
    45       67           1
    45       72           2
    45       75           0
    45       95           4
    46        1           1
    46        7           3
    46       10           3
    46       22           3
    46       30           2
    46       39           1
    46       45           3
    46       71           1
    46       73           0
    46       88           0
    47        4           3
    47       17           0
    47       19           1
    47       29           0
    47       36           3
    47       45           0
    47       66           3
    47       72           4
    47       80           3
    47       82           1
    48       12           3
    48       24           1
    48       26           3
    48       35           0
    48       43           2
    48       45           0
    48       51           1
    48       66           4
    48       90           4
    48       91           2
    49       13           4
    49       22           0
    49       26           0
    49       31           0
    49       32           2
    49       33           0
    49       36           4
    49       54           4
    49       63           4
    49       91           3
    50        1           1
    50        8           3
    50       11           3
    50       15           3
    50       29           0
    50       31           3
    50       50           1
    50       54           3
    50       64           1
    50       69           1
    51        3           1
    51        7           1
    51       17           0
    51       37           0
    51       55           0
    51       71           1
    51       77           4
    51       81           3
    51       85           2
    51       91           4
    52       31           4
    52       32           0
    52       34           4
    52       43           2
    52       47           3
    52       64           2
    52       65           1
    52       66           1
    52       67           3
    52       80           4
    53       20           2
    53       26           4
    53       41           0
    53       64           0
    53       78           2
    53       80           3
    53       83           1
    53       87           2
    53       93           4
    53       96           1
    54        7           3
    54       21           4
    54       24           3
    54       39           2
    54       42           3
    54       50           1
    54       55           4
    54       76           3
    54       92           3
    54       96           3
    55       17           3
    55       22           1
    55       32           1
    55       37           1
    55       40           0
    55       41           4
    55       52           0
    55       68           3
    55       72           0
    55       97           4
    56       22           1
    56       24           3
    56       39           0
    56       62           0
    56       71           2
    56       76           0
    56       80           0
    56       86           1
    56       95           2
    56       99           1
    57       10           2
    57       21           1
    57       33           3
    57       41           2
    57       55           0
    57       59           2
    57       71           3
    57       74           4
    57       85           2
    57       93           2
    58        7           0
    58       10           3
    58       16           4
    58       29           0
    58       44           3
    58       45           1
    58       54           1
    58       68           1
    58       76           0
    58       89           0
    59        4           0
    59        7           3
    59       17           2
    59       20           3
    59       26           2
    59       35           3
    59       50           4
    59       53           2
    59       63           2
    59       80           2
    60       11           2
    60       17           0
    60       32           2
    60       35           3
    60       37           3
    60       46           4
    60       57           0
    60       74           3
    60       76           2
    60       94           3
    61        3           3
    61       19           3
    61       43           2
    61       47           2
    61       59           4
    61       60           0
    61       62           3
    61       96           1
    61       97           1
    61      100           3
    62        2           2
    62       20           2
    62       23           0
    62       39           4
    62       50           1
    62       69           0
    62       74           4
    62       75           1
    62       83           0
    62       98           0
    63        3           4
    63       13           3
    63       24           0
    63       25           2
    63       29           3
    63       45           1
    63       55           0
    63       60           0
    63       77           0
    63       87           1
    64       15           4
    64       20           2
    64       22           3
    64       37           0
    64       61           3
    64       80           2
    64       82           3
    64       89           0
    64       93           3
    64      100           1
    65        2           3
    65       11           4
    65       13           3
    65       28           2
    65       35           1
    65       37           3
    65       49           3
    65       81           0
    65       88           3
    65       92           0
    66       18           0
    66       35           1
    66       38           2
    66       52           2
    66       53           2
    66       58           0
    66       65           1
    66       77           3
    66       83           0
    66       88           1
    67       19           0
    67       23           0
    67       31           0
    67       36           0
    67       41           1
    67       46           1
    67       59           1
    67       73           0
    67       80           2
    67      100           0
    68        8           1
    68       13           1
    68       29           4
    68       61           2
    68       63           1
    68       70           4
    68       78           0
    68       83           1
    68       95           1
    68       96           4
    69        2           2
    69       19           0
    69       35           1
    69       36           2
    69       43           2
    69       58           3
    69       60           0
    69       73           0
    69       87           1
    69       97           4
    70        9           2
    70       13           3
    70       20           2
    70       21           1
    70       30           4
    70       39           4
    70       44           1
    70       54           1
    70       72           2
    70       99           4
    71       12           3
    71       15           4
    71       29           4
    71       33           2
    71       45           2
    71       46           0
    71       56           1
    71       62           1
    71       69           1
    71       84           2
    72       10           1
    72       13           3
    72       17           4
    72       31           1
    72       38           2
    72       48           4
    72       54           2
    72       56           3
    72       86           4
    72       90           4
    73        6           3
    73       37           0
    73       61           2
    73       62           4
    73       69           2
    73       70           3
    73       72           3
    73       75           4
    73       76           4
    73       99           1
    74        3           4
    74       10           2
    74       28           3
    74       31           3
    74       33           1
    74       65           2
    74       66           1
    74       90           1
    74       92           4
    74      100           2
    75       19           2
    75       22           0
    75       24           4
    75       56           3
    75       57           0
    75       58           1
    75       65           1
    75       87           4
    75       91           2
    75       92           1
    76        6           0
    76       20           1
    76       38           1
    76       43           2
    76       56           4
    76       62           0
    76       68           1
    76       74           1
    76       85           0
    76       94           0
    77        2           2
    77        8           3
    77       13           1
    77       20           4
    77       35           4
    77       54           1
    77       88           4
    77       89           4
    77       90           4
    77      100           1
    78       16           3
    78       19           2
    78       22           1
    78       28           2
    78       30           4
    78       32           3
    78       59           4
    78       60           4
    78       63           2
    78       72           0
    79        1           0
    79        2           1
    79       27           3
    79       30           0
    79       35           0
    79       39           4
    79       49           4
    79       74           3
    79       85           3
    79       99           1
    80        7           3
    80       12           4
    80       34           2
    80       55           4
    80       75           3
    80       91           0
    80       93           0
    80       94           1
    80       97           1
    80       98           0
    81        1           4
    81        4           1
    81       29           1
    81       38           4
    81       42           0
    81       53           2
    81       55           0
    81       87           1
    81       94           0
    81       99           3
    82       36           4
    82       40           4
    82       48           2
    82       55           4
    82       62           3
    82       67           3
    82       70           2
    82       76           1
    82       81           0
    82       99           1
    83        5           3
    83       31           0
    83       32           3
    83       33           0
    83       36           1
    83       45           0
    83       51           0
    83       67           2
    83       69           2
    83       97           0
    84       16           4
    84       18           1
    84       22           2
    84       41           1
    84       48           2
    84       57           0
    84       85           1
    84       92           4
    84       97           1
    84       99           2
    85        2           3
    85        3           3
    85        8           0
    85       16           1
    85       24           0
    85       39           4
    85       45           2
    85       50           1
    85       60           4
    85       93           2
    86       13           3
    86       22           0
    86       29           3
    86       33           1
    86       49           0
    86       53           2
    86       65           2
    86       75           2
    86       90           4
    86      100           3
    87        5           2
    87        7           0
    87       17           4
    87       20           3
    87       43           1
    87       45           3
    87       54           1
    87       57           4
    87       86           2
    87       92           2
    88       16           0
    88       58           2
    88       67           3
    88       70           0
    88       73           1
    88       76           4
    88       85           4
    88       86           3
    88       89           4
    88       96           2
    89       31           0
    89       33           4
    89       34           0
    89       41           0
    89       50           3
    89       51           4
    89       73           4
    89       76           1
    89       85           1
    89      100           4
    90        5           4
    90       10           2
    90       16           2
    90       24           4
    90       44           3
    90       50           4
    90       54           1
    90       58           0
    90       70           3
    90       90           0
    91        5           0
    91        7           4
    91       11           4
    91       12           4
    91       24           0
    91       49           0
    91       75           4
    91       78           0
    91       83           0
    91       91           0
    92        3           4
    92       11           4
    92       14           1
    92       29           0
    92       45           3
    92       72           1
    92       77           2
    92       84           1
    92       90           2
    92       96           4
    93       13           2
    93       27           0
    93       29           0
    93       33           0
    93       34           2
    93       46           1
    93       63           0
    93       84           0
    93       87           0
    93       97           4
    94       12           4
    94       27           0
    94       33           0
    94       38           1
    94       46           2
    94       56           4
    94       60           2
    94       68           1
    94       77           4
    94       82           0
    95       16           3
    95       29           1
    95       33           0
    95       50           2
    95       51           1
    95       60           2
    95       74           1
    95       90           4
    95       96           0
    95       97           3
    96       14           2
    96       28           2
    96       54           0
    96       55           1
    96       58           0
    96       60           1
    96       69           0
    96       71           0
    96       78           4
    96       80           2
    97        3           1
    97        4           3
    97       32           1
    97       46           0
    97       63           0
    97       68           2
    97       82           4
    97       94           2
    97       95           3
    97       98           3
    98        5           3
    98        7           3
    98       17           1
    98       43           0
    98       46           0
    98       51           2
    98       82           0
    98       83           3
    98       92           0
    98       99           4
    99        6           4
    99       17           4
    99       24           4
    99       32           3
    99       51           1
    99       76           0
    99       80           0
    99       90           0
    99       91           0
    99       97           2
   100       21           0
   100       22           3
   100       24           3
   100       25           4
   100       37           1
   100       62           1
   100       65           3
   100       70           2
   100       71           1
   100       87           3
